p cnf 49 724
c #### one port of a gate receives one connection
-1 -2 0
-1 -3 0
-4 -1 0
-3 -2 0
-4 -3 0
-5 -6 0
-5 -7 0
-5 -8 0
-9 -5 0
-7 -6 0
-9 -7 0
-9 -8 0
-10 -5 0
-8 -6 0
-10 -9 0
-8 -7 0
-10 -8 0
-11 -12 0
-11 -13 0
-11 -14 0
-11 -15 0
-16 -11 0
-13 -12 0
-16 -13 0
-16 -14 0
-16 -15 0
-17 -11 0
-14 -12 0
-17 -16 0
-14 -13 0
-17 -14 0
-17 -15 0
-18 -11 0
-15 -12 0
-18 -16 0
-15 -13 0
-18 -17 0
-15 -14 0
-18 -15 0
1 4 0
2 3 0
5 9 10 0
6 7 8 0
11 16 17 18 0
12 13 14 15 0
c #### one output of the circuit receives one connection
-19 -20 0
-21 -20 0
-21 -19 0
-22 -20 0
-22 -19 0
-22 -21 0
-23 -20 0
-23 -19 0
-23 -21 0
-23 -22 0
20 19 21 22 23 0
c #### input gate has input value
-24 0
25 0
-26 0
27 0
-28 0
-29 0
30 0
31 0
c #### internal gates produce calculated value
-4 -2 32 33 28 24 -34 0
-4 -2 32 33 28 -24 -34 0
-4 -2 32 33 -28 24 -34 0
-4 -2 32 33 -28 -24 34 0
-4 -2 32 -33 28 24 -34 0
-4 -2 32 -33 28 -24 34 0
-4 -2 32 -33 -28 24 34 0
-4 -2 32 -33 -28 -24 34 0
-4 -2 -32 33 28 24 34 0
-4 -2 -32 33 28 -24 -34 0
-4 -2 -32 33 -28 24 34 0
-4 -2 -32 33 -28 -24 -34 0
-4 -2 -32 -33 28 24 34 0
-4 -2 -32 -33 28 -24 -34 0
-4 -2 -32 -33 -28 24 34 0
-4 -2 -32 -33 -28 -24 -34 0
-4 -2 32 33 29 25 -35 0
-4 -2 32 33 29 -25 -35 0
-4 -2 32 33 -29 25 -35 0
-4 -2 32 33 -29 -25 35 0
-4 -2 32 -33 29 25 -35 0
-4 -2 32 -33 29 -25 35 0
-4 -2 32 -33 -29 25 35 0
-4 -2 32 -33 -29 -25 35 0
-4 -2 -32 33 29 25 35 0
-4 -2 -32 33 29 -25 -35 0
-4 -2 -32 33 -29 25 35 0
-4 -2 -32 33 -29 -25 -35 0
-4 -2 -32 -33 29 25 35 0
-4 -2 -32 -33 29 -25 -35 0
-4 -2 -32 -33 -29 25 35 0
-4 -2 -32 -33 -29 -25 -35 0
-4 -2 32 33 30 26 -36 0
-4 -2 32 33 30 -26 -36 0
-4 -2 32 33 -30 26 -36 0
-4 -2 32 33 -30 -26 36 0
-4 -2 32 -33 30 26 -36 0
-4 -2 32 -33 30 -26 36 0
-4 -2 32 -33 -30 26 36 0
-4 -2 32 -33 -30 -26 36 0
-4 -2 -32 33 30 26 36 0
-4 -2 -32 33 30 -26 -36 0
-4 -2 -32 33 -30 26 36 0
-4 -2 -32 33 -30 -26 -36 0
-4 -2 -32 -33 30 26 36 0
-4 -2 -32 -33 30 -26 -36 0
-4 -2 -32 -33 -30 26 36 0
-4 -2 -32 -33 -30 -26 -36 0
-4 -2 32 33 31 27 -37 0
-4 -2 32 33 31 -27 -37 0
-4 -2 32 33 -31 27 -37 0
-4 -2 32 33 -31 -27 37 0
-4 -2 32 -33 31 27 -37 0
-4 -2 32 -33 31 -27 37 0
-4 -2 32 -33 -31 27 37 0
-4 -2 32 -33 -31 -27 37 0
-4 -2 -32 33 31 27 37 0
-4 -2 -32 33 31 -27 -37 0
-4 -2 -32 33 -31 27 37 0
-4 -2 -32 33 -31 -27 -37 0
-4 -2 -32 -33 31 27 37 0
-4 -2 -32 -33 31 -27 -37 0
-4 -2 -32 -33 -31 27 37 0
-4 -2 -32 -33 -31 -27 -37 0
-9 -6 38 39 28 24 -40 0
-9 -6 38 39 28 -24 -40 0
-9 -6 38 39 -28 24 -40 0
-9 -6 38 39 -28 -24 40 0
-9 -6 38 -39 28 24 -40 0
-9 -6 38 -39 28 -24 40 0
-9 -6 38 -39 -28 24 40 0
-9 -6 38 -39 -28 -24 40 0
-9 -6 -38 39 28 24 40 0
-9 -6 -38 39 28 -24 -40 0
-9 -6 -38 39 -28 24 40 0
-9 -6 -38 39 -28 -24 -40 0
-9 -6 -38 -39 28 24 40 0
-9 -6 -38 -39 28 -24 -40 0
-9 -6 -38 -39 -28 24 40 0
-9 -6 -38 -39 -28 -24 -40 0
-9 -6 38 39 29 25 -41 0
-9 -6 38 39 29 -25 -41 0
-9 -6 38 39 -29 25 -41 0
-9 -6 38 39 -29 -25 41 0
-9 -6 38 -39 29 25 -41 0
-9 -6 38 -39 29 -25 41 0
-9 -6 38 -39 -29 25 41 0
-9 -6 38 -39 -29 -25 41 0
-9 -6 -38 39 29 25 41 0
-9 -6 -38 39 29 -25 -41 0
-9 -6 -38 39 -29 25 41 0
-9 -6 -38 39 -29 -25 -41 0
-9 -6 -38 -39 29 25 41 0
-9 -6 -38 -39 29 -25 -41 0
-9 -6 -38 -39 -29 25 41 0
-9 -6 -38 -39 -29 -25 -41 0
-9 -6 38 39 30 26 -42 0
-9 -6 38 39 30 -26 -42 0
-9 -6 38 39 -30 26 -42 0
-9 -6 38 39 -30 -26 42 0
-9 -6 38 -39 30 26 -42 0
-9 -6 38 -39 30 -26 42 0
-9 -6 38 -39 -30 26 42 0
-9 -6 38 -39 -30 -26 42 0
-9 -6 -38 39 30 26 42 0
-9 -6 -38 39 30 -26 -42 0
-9 -6 -38 39 -30 26 42 0
-9 -6 -38 39 -30 -26 -42 0
-9 -6 -38 -39 30 26 42 0
-9 -6 -38 -39 30 -26 -42 0
-9 -6 -38 -39 -30 26 42 0
-9 -6 -38 -39 -30 -26 -42 0
-9 -6 38 39 31 27 -43 0
-9 -6 38 39 31 -27 -43 0
-9 -6 38 39 -31 27 -43 0
-9 -6 38 39 -31 -27 43 0
-9 -6 38 -39 31 27 -43 0
-9 -6 38 -39 31 -27 43 0
-9 -6 38 -39 -31 27 43 0
-9 -6 38 -39 -31 -27 43 0
-9 -6 -38 39 31 27 43 0
-9 -6 -38 39 31 -27 -43 0
-9 -6 -38 39 -31 27 43 0
-9 -6 -38 39 -31 -27 -43 0
-9 -6 -38 -39 31 27 43 0
-9 -6 -38 -39 31 -27 -43 0
-9 -6 -38 -39 -31 27 43 0
-9 -6 -38 -39 -31 -27 -43 0
-10 -6 38 39 34 24 -40 0
-10 -6 38 39 34 -24 -40 0
-10 -6 38 39 -34 24 -40 0
-10 -6 38 39 -34 -24 40 0
-10 -6 38 -39 34 24 -40 0
-10 -6 38 -39 34 -24 40 0
-10 -6 38 -39 -34 24 40 0
-10 -6 38 -39 -34 -24 40 0
-10 -6 -38 39 34 24 40 0
-10 -6 -38 39 34 -24 -40 0
-10 -6 -38 39 -34 24 40 0
-10 -6 -38 39 -34 -24 -40 0
-10 -6 -38 -39 34 24 40 0
-10 -6 -38 -39 34 -24 -40 0
-10 -6 -38 -39 -34 24 40 0
-10 -6 -38 -39 -34 -24 -40 0
-10 -6 38 39 35 25 -41 0
-10 -6 38 39 35 -25 -41 0
-10 -6 38 39 -35 25 -41 0
-10 -6 38 39 -35 -25 41 0
-10 -6 38 -39 35 25 -41 0
-10 -6 38 -39 35 -25 41 0
-10 -6 38 -39 -35 25 41 0
-10 -6 38 -39 -35 -25 41 0
-10 -6 -38 39 35 25 41 0
-10 -6 -38 39 35 -25 -41 0
-10 -6 -38 39 -35 25 41 0
-10 -6 -38 39 -35 -25 -41 0
-10 -6 -38 -39 35 25 41 0
-10 -6 -38 -39 35 -25 -41 0
-10 -6 -38 -39 -35 25 41 0
-10 -6 -38 -39 -35 -25 -41 0
-10 -6 38 39 36 26 -42 0
-10 -6 38 39 36 -26 -42 0
-10 -6 38 39 -36 26 -42 0
-10 -6 38 39 -36 -26 42 0
-10 -6 38 -39 36 26 -42 0
-10 -6 38 -39 36 -26 42 0
-10 -6 38 -39 -36 26 42 0
-10 -6 38 -39 -36 -26 42 0
-10 -6 -38 39 36 26 42 0
-10 -6 -38 39 36 -26 -42 0
-10 -6 -38 39 -36 26 42 0
-10 -6 -38 39 -36 -26 -42 0
-10 -6 -38 -39 36 26 42 0
-10 -6 -38 -39 36 -26 -42 0
-10 -6 -38 -39 -36 26 42 0
-10 -6 -38 -39 -36 -26 -42 0
-10 -6 38 39 37 27 -43 0
-10 -6 38 39 37 -27 -43 0
-10 -6 38 39 -37 27 -43 0
-10 -6 38 39 -37 -27 43 0
-10 -6 38 -39 37 27 -43 0
-10 -6 38 -39 37 -27 43 0
-10 -6 38 -39 -37 27 43 0
-10 -6 38 -39 -37 -27 43 0
-10 -6 -38 39 37 27 43 0
-10 -6 -38 39 37 -27 -43 0
-10 -6 -38 39 -37 27 43 0
-10 -6 -38 39 -37 -27 -43 0
-10 -6 -38 -39 37 27 43 0
-10 -6 -38 -39 37 -27 -43 0
-10 -6 -38 -39 -37 27 43 0
-10 -6 -38 -39 -37 -27 -43 0
-10 -7 38 39 34 28 -40 0
-10 -7 38 39 34 -28 -40 0
-10 -7 38 39 -34 28 -40 0
-10 -7 38 39 -34 -28 40 0
-10 -7 38 -39 34 28 -40 0
-10 -7 38 -39 34 -28 40 0
-10 -7 38 -39 -34 28 40 0
-10 -7 38 -39 -34 -28 40 0
-10 -7 -38 39 34 28 40 0
-10 -7 -38 39 34 -28 -40 0
-10 -7 -38 39 -34 28 40 0
-10 -7 -38 39 -34 -28 -40 0
-10 -7 -38 -39 34 28 40 0
-10 -7 -38 -39 34 -28 -40 0
-10 -7 -38 -39 -34 28 40 0
-10 -7 -38 -39 -34 -28 -40 0
-10 -7 38 39 35 29 -41 0
-10 -7 38 39 35 -29 -41 0
-10 -7 38 39 -35 29 -41 0
-10 -7 38 39 -35 -29 41 0
-10 -7 38 -39 35 29 -41 0
-10 -7 38 -39 35 -29 41 0
-10 -7 38 -39 -35 29 41 0
-10 -7 38 -39 -35 -29 41 0
-10 -7 -38 39 35 29 41 0
-10 -7 -38 39 35 -29 -41 0
-10 -7 -38 39 -35 29 41 0
-10 -7 -38 39 -35 -29 -41 0
-10 -7 -38 -39 35 29 41 0
-10 -7 -38 -39 35 -29 -41 0
-10 -7 -38 -39 -35 29 41 0
-10 -7 -38 -39 -35 -29 -41 0
-10 -7 38 39 36 30 -42 0
-10 -7 38 39 36 -30 -42 0
-10 -7 38 39 -36 30 -42 0
-10 -7 38 39 -36 -30 42 0
-10 -7 38 -39 36 30 -42 0
-10 -7 38 -39 36 -30 42 0
-10 -7 38 -39 -36 30 42 0
-10 -7 38 -39 -36 -30 42 0
-10 -7 -38 39 36 30 42 0
-10 -7 -38 39 36 -30 -42 0
-10 -7 -38 39 -36 30 42 0
-10 -7 -38 39 -36 -30 -42 0
-10 -7 -38 -39 36 30 42 0
-10 -7 -38 -39 36 -30 -42 0
-10 -7 -38 -39 -36 30 42 0
-10 -7 -38 -39 -36 -30 -42 0
-10 -7 38 39 37 31 -43 0
-10 -7 38 39 37 -31 -43 0
-10 -7 38 39 -37 31 -43 0
-10 -7 38 39 -37 -31 43 0
-10 -7 38 -39 37 31 -43 0
-10 -7 38 -39 37 -31 43 0
-10 -7 38 -39 -37 31 43 0
-10 -7 38 -39 -37 -31 43 0
-10 -7 -38 39 37 31 43 0
-10 -7 -38 39 37 -31 -43 0
-10 -7 -38 39 -37 31 43 0
-10 -7 -38 39 -37 -31 -43 0
-10 -7 -38 -39 37 31 43 0
-10 -7 -38 -39 37 -31 -43 0
-10 -7 -38 -39 -37 31 43 0
-10 -7 -38 -39 -37 -31 -43 0
-16 -12 44 45 28 24 -46 0
-16 -12 44 45 28 -24 -46 0
-16 -12 44 45 -28 24 -46 0
-16 -12 44 45 -28 -24 46 0
-16 -12 44 -45 28 24 -46 0
-16 -12 44 -45 28 -24 46 0
-16 -12 44 -45 -28 24 46 0
-16 -12 44 -45 -28 -24 46 0
-16 -12 -44 45 28 24 46 0
-16 -12 -44 45 28 -24 -46 0
-16 -12 -44 45 -28 24 46 0
-16 -12 -44 45 -28 -24 -46 0
-16 -12 -44 -45 28 24 46 0
-16 -12 -44 -45 28 -24 -46 0
-16 -12 -44 -45 -28 24 46 0
-16 -12 -44 -45 -28 -24 -46 0
-16 -12 44 45 29 25 -47 0
-16 -12 44 45 29 -25 -47 0
-16 -12 44 45 -29 25 -47 0
-16 -12 44 45 -29 -25 47 0
-16 -12 44 -45 29 25 -47 0
-16 -12 44 -45 29 -25 47 0
-16 -12 44 -45 -29 25 47 0
-16 -12 44 -45 -29 -25 47 0
-16 -12 -44 45 29 25 47 0
-16 -12 -44 45 29 -25 -47 0
-16 -12 -44 45 -29 25 47 0
-16 -12 -44 45 -29 -25 -47 0
-16 -12 -44 -45 29 25 47 0
-16 -12 -44 -45 29 -25 -47 0
-16 -12 -44 -45 -29 25 47 0
-16 -12 -44 -45 -29 -25 -47 0
-16 -12 44 45 30 26 -48 0
-16 -12 44 45 30 -26 -48 0
-16 -12 44 45 -30 26 -48 0
-16 -12 44 45 -30 -26 48 0
-16 -12 44 -45 30 26 -48 0
-16 -12 44 -45 30 -26 48 0
-16 -12 44 -45 -30 26 48 0
-16 -12 44 -45 -30 -26 48 0
-16 -12 -44 45 30 26 48 0
-16 -12 -44 45 30 -26 -48 0
-16 -12 -44 45 -30 26 48 0
-16 -12 -44 45 -30 -26 -48 0
-16 -12 -44 -45 30 26 48 0
-16 -12 -44 -45 30 -26 -48 0
-16 -12 -44 -45 -30 26 48 0
-16 -12 -44 -45 -30 -26 -48 0
-16 -12 44 45 31 27 -49 0
-16 -12 44 45 31 -27 -49 0
-16 -12 44 45 -31 27 -49 0
-16 -12 44 45 -31 -27 49 0
-16 -12 44 -45 31 27 -49 0
-16 -12 44 -45 31 -27 49 0
-16 -12 44 -45 -31 27 49 0
-16 -12 44 -45 -31 -27 49 0
-16 -12 -44 45 31 27 49 0
-16 -12 -44 45 31 -27 -49 0
-16 -12 -44 45 -31 27 49 0
-16 -12 -44 45 -31 -27 -49 0
-16 -12 -44 -45 31 27 49 0
-16 -12 -44 -45 31 -27 -49 0
-16 -12 -44 -45 -31 27 49 0
-16 -12 -44 -45 -31 -27 -49 0
-17 -12 44 45 34 24 -46 0
-17 -12 44 45 34 -24 -46 0
-17 -12 44 45 -34 24 -46 0
-17 -12 44 45 -34 -24 46 0
-17 -12 44 -45 34 24 -46 0
-17 -12 44 -45 34 -24 46 0
-17 -12 44 -45 -34 24 46 0
-17 -12 44 -45 -34 -24 46 0
-17 -12 -44 45 34 24 46 0
-17 -12 -44 45 34 -24 -46 0
-17 -12 -44 45 -34 24 46 0
-17 -12 -44 45 -34 -24 -46 0
-17 -12 -44 -45 34 24 46 0
-17 -12 -44 -45 34 -24 -46 0
-17 -12 -44 -45 -34 24 46 0
-17 -12 -44 -45 -34 -24 -46 0
-17 -12 44 45 35 25 -47 0
-17 -12 44 45 35 -25 -47 0
-17 -12 44 45 -35 25 -47 0
-17 -12 44 45 -35 -25 47 0
-17 -12 44 -45 35 25 -47 0
-17 -12 44 -45 35 -25 47 0
-17 -12 44 -45 -35 25 47 0
-17 -12 44 -45 -35 -25 47 0
-17 -12 -44 45 35 25 47 0
-17 -12 -44 45 35 -25 -47 0
-17 -12 -44 45 -35 25 47 0
-17 -12 -44 45 -35 -25 -47 0
-17 -12 -44 -45 35 25 47 0
-17 -12 -44 -45 35 -25 -47 0
-17 -12 -44 -45 -35 25 47 0
-17 -12 -44 -45 -35 -25 -47 0
-17 -12 44 45 36 26 -48 0
-17 -12 44 45 36 -26 -48 0
-17 -12 44 45 -36 26 -48 0
-17 -12 44 45 -36 -26 48 0
-17 -12 44 -45 36 26 -48 0
-17 -12 44 -45 36 -26 48 0
-17 -12 44 -45 -36 26 48 0
-17 -12 44 -45 -36 -26 48 0
-17 -12 -44 45 36 26 48 0
-17 -12 -44 45 36 -26 -48 0
-17 -12 -44 45 -36 26 48 0
-17 -12 -44 45 -36 -26 -48 0
-17 -12 -44 -45 36 26 48 0
-17 -12 -44 -45 36 -26 -48 0
-17 -12 -44 -45 -36 26 48 0
-17 -12 -44 -45 -36 -26 -48 0
-17 -12 44 45 37 27 -49 0
-17 -12 44 45 37 -27 -49 0
-17 -12 44 45 -37 27 -49 0
-17 -12 44 45 -37 -27 49 0
-17 -12 44 -45 37 27 -49 0
-17 -12 44 -45 37 -27 49 0
-17 -12 44 -45 -37 27 49 0
-17 -12 44 -45 -37 -27 49 0
-17 -12 -44 45 37 27 49 0
-17 -12 -44 45 37 -27 -49 0
-17 -12 -44 45 -37 27 49 0
-17 -12 -44 45 -37 -27 -49 0
-17 -12 -44 -45 37 27 49 0
-17 -12 -44 -45 37 -27 -49 0
-17 -12 -44 -45 -37 27 49 0
-17 -12 -44 -45 -37 -27 -49 0
-17 -13 44 45 34 28 -46 0
-17 -13 44 45 34 -28 -46 0
-17 -13 44 45 -34 28 -46 0
-17 -13 44 45 -34 -28 46 0
-17 -13 44 -45 34 28 -46 0
-17 -13 44 -45 34 -28 46 0
-17 -13 44 -45 -34 28 46 0
-17 -13 44 -45 -34 -28 46 0
-17 -13 -44 45 34 28 46 0
-17 -13 -44 45 34 -28 -46 0
-17 -13 -44 45 -34 28 46 0
-17 -13 -44 45 -34 -28 -46 0
-17 -13 -44 -45 34 28 46 0
-17 -13 -44 -45 34 -28 -46 0
-17 -13 -44 -45 -34 28 46 0
-17 -13 -44 -45 -34 -28 -46 0
-17 -13 44 45 35 29 -47 0
-17 -13 44 45 35 -29 -47 0
-17 -13 44 45 -35 29 -47 0
-17 -13 44 45 -35 -29 47 0
-17 -13 44 -45 35 29 -47 0
-17 -13 44 -45 35 -29 47 0
-17 -13 44 -45 -35 29 47 0
-17 -13 44 -45 -35 -29 47 0
-17 -13 -44 45 35 29 47 0
-17 -13 -44 45 35 -29 -47 0
-17 -13 -44 45 -35 29 47 0
-17 -13 -44 45 -35 -29 -47 0
-17 -13 -44 -45 35 29 47 0
-17 -13 -44 -45 35 -29 -47 0
-17 -13 -44 -45 -35 29 47 0
-17 -13 -44 -45 -35 -29 -47 0
-17 -13 44 45 36 30 -48 0
-17 -13 44 45 36 -30 -48 0
-17 -13 44 45 -36 30 -48 0
-17 -13 44 45 -36 -30 48 0
-17 -13 44 -45 36 30 -48 0
-17 -13 44 -45 36 -30 48 0
-17 -13 44 -45 -36 30 48 0
-17 -13 44 -45 -36 -30 48 0
-17 -13 -44 45 36 30 48 0
-17 -13 -44 45 36 -30 -48 0
-17 -13 -44 45 -36 30 48 0
-17 -13 -44 45 -36 -30 -48 0
-17 -13 -44 -45 36 30 48 0
-17 -13 -44 -45 36 -30 -48 0
-17 -13 -44 -45 -36 30 48 0
-17 -13 -44 -45 -36 -30 -48 0
-17 -13 44 45 37 31 -49 0
-17 -13 44 45 37 -31 -49 0
-17 -13 44 45 -37 31 -49 0
-17 -13 44 45 -37 -31 49 0
-17 -13 44 -45 37 31 -49 0
-17 -13 44 -45 37 -31 49 0
-17 -13 44 -45 -37 31 49 0
-17 -13 44 -45 -37 -31 49 0
-17 -13 -44 45 37 31 49 0
-17 -13 -44 45 37 -31 -49 0
-17 -13 -44 45 -37 31 49 0
-17 -13 -44 45 -37 -31 -49 0
-17 -13 -44 -45 37 31 49 0
-17 -13 -44 -45 37 -31 -49 0
-17 -13 -44 -45 -37 31 49 0
-17 -13 -44 -45 -37 -31 -49 0
-18 -12 44 45 40 24 -46 0
-18 -12 44 45 40 -24 -46 0
-18 -12 44 45 -40 24 -46 0
-18 -12 44 45 -40 -24 46 0
-18 -12 44 -45 40 24 -46 0
-18 -12 44 -45 40 -24 46 0
-18 -12 44 -45 -40 24 46 0
-18 -12 44 -45 -40 -24 46 0
-18 -12 -44 45 40 24 46 0
-18 -12 -44 45 40 -24 -46 0
-18 -12 -44 45 -40 24 46 0
-18 -12 -44 45 -40 -24 -46 0
-18 -12 -44 -45 40 24 46 0
-18 -12 -44 -45 40 -24 -46 0
-18 -12 -44 -45 -40 24 46 0
-18 -12 -44 -45 -40 -24 -46 0
-18 -12 44 45 41 25 -47 0
-18 -12 44 45 41 -25 -47 0
-18 -12 44 45 -41 25 -47 0
-18 -12 44 45 -41 -25 47 0
-18 -12 44 -45 41 25 -47 0
-18 -12 44 -45 41 -25 47 0
-18 -12 44 -45 -41 25 47 0
-18 -12 44 -45 -41 -25 47 0
-18 -12 -44 45 41 25 47 0
-18 -12 -44 45 41 -25 -47 0
-18 -12 -44 45 -41 25 47 0
-18 -12 -44 45 -41 -25 -47 0
-18 -12 -44 -45 41 25 47 0
-18 -12 -44 -45 41 -25 -47 0
-18 -12 -44 -45 -41 25 47 0
-18 -12 -44 -45 -41 -25 -47 0
-18 -12 44 45 42 26 -48 0
-18 -12 44 45 42 -26 -48 0
-18 -12 44 45 -42 26 -48 0
-18 -12 44 45 -42 -26 48 0
-18 -12 44 -45 42 26 -48 0
-18 -12 44 -45 42 -26 48 0
-18 -12 44 -45 -42 26 48 0
-18 -12 44 -45 -42 -26 48 0
-18 -12 -44 45 42 26 48 0
-18 -12 -44 45 42 -26 -48 0
-18 -12 -44 45 -42 26 48 0
-18 -12 -44 45 -42 -26 -48 0
-18 -12 -44 -45 42 26 48 0
-18 -12 -44 -45 42 -26 -48 0
-18 -12 -44 -45 -42 26 48 0
-18 -12 -44 -45 -42 -26 -48 0
-18 -12 44 45 43 27 -49 0
-18 -12 44 45 43 -27 -49 0
-18 -12 44 45 -43 27 -49 0
-18 -12 44 45 -43 -27 49 0
-18 -12 44 -45 43 27 -49 0
-18 -12 44 -45 43 -27 49 0
-18 -12 44 -45 -43 27 49 0
-18 -12 44 -45 -43 -27 49 0
-18 -12 -44 45 43 27 49 0
-18 -12 -44 45 43 -27 -49 0
-18 -12 -44 45 -43 27 49 0
-18 -12 -44 45 -43 -27 -49 0
-18 -12 -44 -45 43 27 49 0
-18 -12 -44 -45 43 -27 -49 0
-18 -12 -44 -45 -43 27 49 0
-18 -12 -44 -45 -43 -27 -49 0
-18 -13 44 45 40 28 -46 0
-18 -13 44 45 40 -28 -46 0
-18 -13 44 45 -40 28 -46 0
-18 -13 44 45 -40 -28 46 0
-18 -13 44 -45 40 28 -46 0
-18 -13 44 -45 40 -28 46 0
-18 -13 44 -45 -40 28 46 0
-18 -13 44 -45 -40 -28 46 0
-18 -13 -44 45 40 28 46 0
-18 -13 -44 45 40 -28 -46 0
-18 -13 -44 45 -40 28 46 0
-18 -13 -44 45 -40 -28 -46 0
-18 -13 -44 -45 40 28 46 0
-18 -13 -44 -45 40 -28 -46 0
-18 -13 -44 -45 -40 28 46 0
-18 -13 -44 -45 -40 -28 -46 0
-18 -13 44 45 41 29 -47 0
-18 -13 44 45 41 -29 -47 0
-18 -13 44 45 -41 29 -47 0
-18 -13 44 45 -41 -29 47 0
-18 -13 44 -45 41 29 -47 0
-18 -13 44 -45 41 -29 47 0
-18 -13 44 -45 -41 29 47 0
-18 -13 44 -45 -41 -29 47 0
-18 -13 -44 45 41 29 47 0
-18 -13 -44 45 41 -29 -47 0
-18 -13 -44 45 -41 29 47 0
-18 -13 -44 45 -41 -29 -47 0
-18 -13 -44 -45 41 29 47 0
-18 -13 -44 -45 41 -29 -47 0
-18 -13 -44 -45 -41 29 47 0
-18 -13 -44 -45 -41 -29 -47 0
-18 -13 44 45 42 30 -48 0
-18 -13 44 45 42 -30 -48 0
-18 -13 44 45 -42 30 -48 0
-18 -13 44 45 -42 -30 48 0
-18 -13 44 -45 42 30 -48 0
-18 -13 44 -45 42 -30 48 0
-18 -13 44 -45 -42 30 48 0
-18 -13 44 -45 -42 -30 48 0
-18 -13 -44 45 42 30 48 0
-18 -13 -44 45 42 -30 -48 0
-18 -13 -44 45 -42 30 48 0
-18 -13 -44 45 -42 -30 -48 0
-18 -13 -44 -45 42 30 48 0
-18 -13 -44 -45 42 -30 -48 0
-18 -13 -44 -45 -42 30 48 0
-18 -13 -44 -45 -42 -30 -48 0
-18 -13 44 45 43 31 -49 0
-18 -13 44 45 43 -31 -49 0
-18 -13 44 45 -43 31 -49 0
-18 -13 44 45 -43 -31 49 0
-18 -13 44 -45 43 31 -49 0
-18 -13 44 -45 43 -31 49 0
-18 -13 44 -45 -43 31 49 0
-18 -13 44 -45 -43 -31 49 0
-18 -13 -44 45 43 31 49 0
-18 -13 -44 45 43 -31 -49 0
-18 -13 -44 45 -43 31 49 0
-18 -13 -44 45 -43 -31 -49 0
-18 -13 -44 -45 43 31 49 0
-18 -13 -44 -45 43 -31 -49 0
-18 -13 -44 -45 -43 31 49 0
-18 -13 -44 -45 -43 -31 -49 0
-18 -14 44 45 40 34 -46 0
-18 -14 44 45 40 -34 -46 0
-18 -14 44 45 -40 34 -46 0
-18 -14 44 45 -40 -34 46 0
-18 -14 44 -45 40 34 -46 0
-18 -14 44 -45 40 -34 46 0
-18 -14 44 -45 -40 34 46 0
-18 -14 44 -45 -40 -34 46 0
-18 -14 -44 45 40 34 46 0
-18 -14 -44 45 40 -34 -46 0
-18 -14 -44 45 -40 34 46 0
-18 -14 -44 45 -40 -34 -46 0
-18 -14 -44 -45 40 34 46 0
-18 -14 -44 -45 40 -34 -46 0
-18 -14 -44 -45 -40 34 46 0
-18 -14 -44 -45 -40 -34 -46 0
-18 -14 44 45 41 35 -47 0
-18 -14 44 45 41 -35 -47 0
-18 -14 44 45 -41 35 -47 0
-18 -14 44 45 -41 -35 47 0
-18 -14 44 -45 41 35 -47 0
-18 -14 44 -45 41 -35 47 0
-18 -14 44 -45 -41 35 47 0
-18 -14 44 -45 -41 -35 47 0
-18 -14 -44 45 41 35 47 0
-18 -14 -44 45 41 -35 -47 0
-18 -14 -44 45 -41 35 47 0
-18 -14 -44 45 -41 -35 -47 0
-18 -14 -44 -45 41 35 47 0
-18 -14 -44 -45 41 -35 -47 0
-18 -14 -44 -45 -41 35 47 0
-18 -14 -44 -45 -41 -35 -47 0
-18 -14 44 45 42 36 -48 0
-18 -14 44 45 42 -36 -48 0
-18 -14 44 45 -42 36 -48 0
-18 -14 44 45 -42 -36 48 0
-18 -14 44 -45 42 36 -48 0
-18 -14 44 -45 42 -36 48 0
-18 -14 44 -45 -42 36 48 0
-18 -14 44 -45 -42 -36 48 0
-18 -14 -44 45 42 36 48 0
-18 -14 -44 45 42 -36 -48 0
-18 -14 -44 45 -42 36 48 0
-18 -14 -44 45 -42 -36 -48 0
-18 -14 -44 -45 42 36 48 0
-18 -14 -44 -45 42 -36 -48 0
-18 -14 -44 -45 -42 36 48 0
-18 -14 -44 -45 -42 -36 -48 0
-18 -14 44 45 43 37 -49 0
-18 -14 44 45 43 -37 -49 0
-18 -14 44 45 -43 37 -49 0
-18 -14 44 45 -43 -37 49 0
-18 -14 44 -45 43 37 -49 0
-18 -14 44 -45 43 -37 49 0
-18 -14 44 -45 -43 37 49 0
-18 -14 44 -45 -43 -37 49 0
-18 -14 -44 45 43 37 49 0
-18 -14 -44 45 43 -37 -49 0
-18 -14 -44 45 -43 37 49 0
-18 -14 -44 45 -43 -37 -49 0
-18 -14 -44 -45 43 37 49 0
-18 -14 -44 -45 43 -37 -49 0
-18 -14 -44 -45 -43 37 49 0
-18 -14 -44 -45 -43 -37 -49 0
c #### outputs match truth table
-20 -24 0
-19 -28 0
-21 -34 0
-22 -40 0
-23 -46 0
-20 25 0
-19 29 0
-21 35 0
-22 41 0
-23 47 0
-20 26 0
-19 30 0
-21 36 0
-22 42 0
-23 48 0
-20 -27 0
-19 -31 0
-21 -37 0
-22 -43 0
-23 -49 0
c #### target truth table
c #### {"in":0,"out":0}
c #### {"in":1,"out":1}
c #### {"in":2,"out":1}
c #### {"in":3,"out":0}
c #### variable names
c #### c_2_0_0 1
c #### c_2_1_0 2
c #### c_2_1_1 3
c #### c_2_0_1 4
c #### c_3_0_0 5
c #### c_3_1_0 6
c #### c_3_1_1 7
c #### c_3_1_2 8
c #### c_3_0_1 9
c #### c_3_0_2 10
c #### c_4_0_0 11
c #### c_4_1_0 12
c #### c_4_1_1 13
c #### c_4_1_2 14
c #### c_4_1_3 15
c #### c_4_0_1 16
c #### c_4_0_2 17
c #### c_4_0_3 18
c #### o_1_0 19
c #### o_0_0 20
c #### o_2_0 21
c #### o_3_0 22
c #### o_4_0 23
c #### v_0_0 24
c #### v_0_1 25
c #### v_0_2 26
c #### v_0_3 27
c #### v_1_0 28
c #### v_1_1 29
c #### v_1_2 30
c #### v_1_3 31
c #### t_2_0 32
c #### t_2_1 33
c #### v_2_0 34
c #### v_2_1 35
c #### v_2_2 36
c #### v_2_3 37
c #### t_3_0 38
c #### t_3_1 39
c #### v_3_0 40
c #### v_3_1 41
c #### v_3_2 42
c #### v_3_3 43
c #### t_4_0 44
c #### t_4_1 45
c #### v_4_0 46
c #### v_4_1 47
c #### v_4_2 48
c #### v_4_3 49
